certificates/rado_a11_c58_N24.cnf
c Rad2 upper bound instance: x1 + 11*x2 - x3 = 58, interval [1,24]
p cnf 24 104
1 6 9 0
-1 -6 -9 0
1 7 20 0
-1 -7 -20 0
2 6 10 0
-2 -6 -10 0
2 7 21 0
-2 -7 -21 0
3 6 11 0
-3 -6 -11 0
3 7 22 0
-3 -7 -22 0
1 4 5 0
-1 -4 -5 0
4 6 12 0
-4 -6 -12 0
4 7 23 0
-4 -7 -23 0
2 5 0
-2 -5 0
5 6 13 0
-5 -6 -13 0
5 7 24 0
-5 -7 -24 0
3 5 6 0
-3 -5 -6 0
6 14 0
-6 -14 0
4 5 7 0
-4 -5 -7 0
6 7 15 0
-6 -7 -15 0
5 8 0
-5 -8 0
6 8 16 0
-6 -8 -16 0
5 6 9 0
-5 -6 -9 0
6 9 17 0
-6 -9 -17 0
5 7 10 0
-5 -7 -10 0
6 10 18 0
-6 -10 -18 0
5 8 11 0
-5 -8 -11 0
6 11 19 0
-6 -11 -19 0
5 9 12 0
-5 -9 -12 0
6 12 20 0
-6 -12 -20 0
5 10 13 0
-5 -10 -13 0
6 13 21 0
-6 -13 -21 0
5 11 14 0
-5 -11 -14 0
6 14 22 0
-6 -14 -22 0
1 4 15 0
-1 -4 -15 0
5 12 15 0
-5 -12 -15 0
6 15 23 0
-6 -15 -23 0
2 4 16 0
-2 -4 -16 0
5 13 16 0
-5 -13 -16 0
6 16 24 0
-6 -16 -24 0
3 4 17 0
-3 -4 -17 0
5 14 17 0
-5 -14 -17 0
4 18 0
-4 -18 0
5 15 18 0
-5 -15 -18 0
4 5 19 0
-4 -5 -19 0
5 16 19 0
-5 -16 -19 0
4 6 20 0
-4 -6 -20 0
5 17 20 0
-5 -17 -20 0
4 7 21 0
-4 -7 -21 0
5 18 21 0
-5 -18 -21 0
4 8 22 0
-4 -8 -22 0
5 19 22 0
-5 -19 -22 0
4 9 23 0
-4 -9 -23 0
5 20 23 0
-5 -20 -23 0
4 10 24 0
-4 -10 -24 0
5 21 24 0
-5 -21 -24 0
