certificates/rado_a11_c58_N24.drat
-21 -22 -24 0
4 5 0
d 4 1 5 0
-8 -22 0
-22 -24 0
d -21 -22 -24 0
-5 -24 0
-24 0
5 0
-2 0
-8 0
-7 0
21 0
-18 0
4 0
-1 0
-19 0
20 0
-23 0
-6 0
-17 0
9 0
10 0
14 0
15 0
16 0
11 0
-12 0
-13 0
0
